(set-info :smt-lib-version 2.6)
(set-logic UF)
(set-info :source |Benchmarks from the paper: "Extending Sledgehammer with SMT Solvers" by Jasmin Blanchette, Sascha Bohme, and Lawrence C. Paulson, CADE 2011.  Translated to SMT2 by Andrew Reynolds and Morgan Deters.|)
(set-info :category "industrial")
(set-info :status unsat)
(declare-sort S1 0)
(declare-sort S2 0)
(declare-sort S3 0)
(declare-sort S4 0)
(declare-sort S5 0)
(declare-sort S6 0)
(declare-sort S7 0)
(declare-sort S8 0)
(declare-sort S9 0)
(declare-sort S10 0)
(declare-sort S11 0)
(declare-sort S12 0)
(declare-sort S13 0)
(declare-sort S14 0)
(declare-sort S15 0)
(declare-sort S16 0)
(declare-sort S17 0)
(declare-sort S18 0)
(declare-sort S19 0)
(declare-sort S20 0)
(declare-sort S21 0)
(declare-sort S22 0)
(declare-sort S23 0)
(declare-sort S24 0)
(declare-sort S25 0)
(declare-sort S26 0)
(declare-sort S27 0)
(declare-sort S28 0)
(declare-sort S29 0)
(declare-sort S30 0)
(declare-sort S31 0)
(declare-sort S32 0)
(declare-sort S33 0)
(declare-sort S34 0)
(declare-sort S35 0)
(declare-sort S36 0)
(declare-sort S37 0)
(declare-sort S38 0)
(declare-sort S39 0)
(declare-sort S40 0)
(declare-sort S41 0)
(declare-sort S42 0)
(declare-sort S43 0)
(declare-sort S44 0)
(declare-sort S45 0)
(declare-sort S46 0)
(declare-sort S47 0)
(declare-sort S48 0)
(declare-sort S49 0)
(declare-sort S50 0)
(declare-sort S51 0)
(declare-sort S52 0)
(declare-sort S53 0)
(declare-sort S54 0)
(declare-sort S55 0)
(declare-fun f1 () S1)
(declare-fun f2 () S1)
(declare-fun f3 (S4 S3) S3)
(declare-fun f4 (S5 S3) S4)
(declare-fun f5 (S6 S2) S5)
(declare-fun f6 () S6)
(declare-fun f7 () S5)
(declare-fun f8 (S7 S2) S4)
(declare-fun f9 () S7)
(declare-fun f10 () S2)
(declare-fun f11 () S7)
(declare-fun f12 () S3)
(declare-fun f13 (S9 S8) S8)
(declare-fun f14 (S10 S8) S9)
(declare-fun f15 () S10)
(declare-fun f16 () S8)
(declare-fun f17 (S12 S11) S11)
(declare-fun f18 (S13 S11) S12)
(declare-fun f19 () S13)
(declare-fun f20 () S11)
(declare-fun f21 (S15 S14) S14)
(declare-fun f22 (S16 S14) S15)
(declare-fun f23 () S16)
(declare-fun f24 () S14)
(declare-fun f25 (S18 S17) S17)
(declare-fun f26 (S19 S17) S18)
(declare-fun f27 () S19)
(declare-fun f28 () S17)
(declare-fun f29 (S20 S2) S2)
(declare-fun f30 (S21 S2) S20)
(declare-fun f31 () S21)
(declare-fun f32 () S2)
(declare-fun f33 (S22 S17) S9)
(declare-fun f34 () S22)
(declare-fun f35 (S23 S14) S12)
(declare-fun f36 () S23)
(declare-fun f37 (S24 S8) S15)
(declare-fun f38 () S24)
(declare-fun f39 (S25 S3) S18)
(declare-fun f40 () S25)
(declare-fun f41 () S25)
(declare-fun f42 () S24)
(declare-fun f43 (S11 S26) S26)
(declare-fun f44 () S26)
(declare-fun f45 () S23)
(declare-fun f46 () S22)
(declare-fun f47 (S29 S3) S27)
(declare-fun f48 (S30 S28) S29)
(declare-fun f49 (S31 S27) S30)
(declare-fun f50 () S31)
(declare-fun f51 (S32 S27) S27)
(declare-fun f52 (S33 S3) S32)
(declare-fun f53 (S28 S2) S33)
(declare-fun f54 (S34 S6) S4)
(declare-fun f55 (S35 S3) S34)
(declare-fun f56 () S35)
(declare-fun f57 (S37 S8) S27)
(declare-fun f58 (S38 S36) S37)
(declare-fun f59 (S39 S27) S38)
(declare-fun f60 () S39)
(declare-fun f61 (S40 S8) S32)
(declare-fun f62 (S36 S17) S40)
(declare-fun f63 (S42 S11) S27)
(declare-fun f64 (S43 S41) S42)
(declare-fun f65 (S44 S27) S43)
(declare-fun f66 () S44)
(declare-fun f67 (S45 S11) S32)
(declare-fun f68 (S41 S14) S45)
(declare-fun f69 (S47 S14) S27)
(declare-fun f70 (S48 S46) S47)
(declare-fun f71 (S49 S27) S48)
(declare-fun f72 () S49)
(declare-fun f73 (S50 S14) S32)
(declare-fun f74 (S46 S8) S50)
(declare-fun f75 (S52 S17) S27)
(declare-fun f76 (S53 S51) S52)
(declare-fun f77 (S54 S27) S53)
(declare-fun f78 () S54)
(declare-fun f79 (S55 S17) S32)
(declare-fun f80 (S51 S3) S55)
(assert (not (= f1 f2)))
(assert (forall ((?v0 S2) (?v1 S3) (?v2 S3)) (= (f3 (f4 (f5 f6 ?v0) ?v1) ?v2) (f3 (f4 f7 (f3 (f8 f9 f10) ?v2)) (f3 (f8 f11 ?v0) ?v2)))))
(assert (forall ((?v0 S3)) (= (f3 (f4 f7 ?v0) f12) ?v0)))
(assert (forall ((?v0 S8)) (= (f13 (f14 f15 ?v0) f16) ?v0)))
(assert (forall ((?v0 S11)) (= (f17 (f18 f19 ?v0) f20) ?v0)))
(assert (forall ((?v0 S14)) (= (f21 (f22 f23 ?v0) f24) ?v0)))
(assert (forall ((?v0 S17)) (= (f25 (f26 f27 ?v0) f28) ?v0)))
(assert (forall ((?v0 S2)) (= (f29 (f30 f31 ?v0) f32) ?v0)))
(assert (forall ((?v0 S2)) (= (f3 (f8 f9 ?v0) f12) f12)))
(assert (forall ((?v0 S17)) (= (f13 (f33 f34 ?v0) f16) f16)))
(assert (forall ((?v0 S14)) (= (f17 (f35 f36 ?v0) f20) f20)))
(assert (forall ((?v0 S8)) (= (f21 (f37 f38 ?v0) f24) f24)))
(assert (forall ((?v0 S3)) (= (f25 (f39 f40 ?v0) f28) f28)))
(assert (= (f3 (f8 f11 f32) f12) f12))
(assert (= (f25 (f39 f41 f12) f28) f28))
(assert (= (f21 (f37 f42 f16) f24) f24))
(assert (= (f43 f20 f44) f44))
(assert (= (f17 (f35 f45 f24) f20) f20))
(assert (= (f13 (f33 f46 f28) f16) f16))
(assert (forall ((?v0 S27) (?v1 S28) (?v2 S2) (?v3 S3)) (let ((?v_0 (f48 (f49 f50 ?v0) ?v1))) (= (f47 ?v_0 (f3 (f8 f11 ?v2) ?v3)) (f51 (f52 (f53 ?v1 ?v2) ?v3) (ite (= ?v3 f12) ?v0 (f47 ?v_0 ?v3)))))))
(assert (forall ((?v0 S3) (?v1 S6) (?v2 S2) (?v3 S3)) (let ((?v_0 (f54 (f55 f56 ?v0) ?v1))) (= (f3 ?v_0 (f3 (f8 f11 ?v2) ?v3)) (f3 (f4 (f5 ?v1 ?v2) ?v3) (ite (= ?v3 f12) ?v0 (f3 ?v_0 ?v3)))))))
(assert (forall ((?v0 S27) (?v1 S36) (?v2 S17) (?v3 S8)) (let ((?v_0 (f58 (f59 f60 ?v0) ?v1))) (= (f57 ?v_0 (f13 (f33 f46 ?v2) ?v3)) (f51 (f61 (f62 ?v1 ?v2) ?v3) (ite (= ?v3 f16) ?v0 (f57 ?v_0 ?v3)))))))
(assert (forall ((?v0 S27) (?v1 S41) (?v2 S14) (?v3 S11)) (let ((?v_0 (f64 (f65 f66 ?v0) ?v1))) (= (f63 ?v_0 (f17 (f35 f45 ?v2) ?v3)) (f51 (f67 (f68 ?v1 ?v2) ?v3) (ite (= ?v3 f20) ?v0 (f63 ?v_0 ?v3)))))))
(assert (forall ((?v0 S27) (?v1 S46) (?v2 S8) (?v3 S14)) (let ((?v_0 (f70 (f71 f72 ?v0) ?v1))) (= (f69 ?v_0 (f21 (f37 f42 ?v2) ?v3)) (f51 (f73 (f74 ?v1 ?v2) ?v3) (ite (= ?v3 f24) ?v0 (f69 ?v_0 ?v3)))))))
(assert (forall ((?v0 S27) (?v1 S51) (?v2 S3) (?v3 S17)) (let ((?v_0 (f76 (f77 f78 ?v0) ?v1))) (= (f75 ?v_0 (f25 (f39 f41 ?v2) ?v3)) (f51 (f79 (f80 ?v1 ?v2) ?v3) (ite (= ?v3 f28) ?v0 (f75 ?v_0 ?v3)))))))
(assert (not (= (f3 (f54 (f55 f56 f12) f6) f12) f12)))
(check-sat)
(exit)
